3 40 1 10
18 16 15 3 9 10 1 8 1 20 20 6 9 11 12 6 15 14 13 6 16 10 12 15 10 6 10 6 18 9 20 20 8 10 5 19 19 17 6 6 
11.5 15.27 3.78 6.75 9.53 6.07 5.07 12.57 0.68 2.8 0.34 13.46 4.83 1.05 7.41 11.79 7.04 4.33 7.05 13.63 8.05 8.69 2.09 0.15 10.41 2.97 12.31 5.45 7.06 14.35 7.44 7.4 1.99 12.57 0.52 3.92 3.94 7.46 6.9 6.85 
8 8 8 8 8 8 8 8 8 8 8 8 8 8 8 8 8 8 8 8 8 8 8 8 8 8 8 8 8 8 8 8 8 8 8 8 8 8 8 8 
1.77 1.37 5.71 15.42 7.54 4.18 8.61 11.79 11.74 15.5 8.4 12.35 2.82 12.83 4.93 3.23 6.99 15.22 8.69 8.5 6.74 14.57 6.3 4.75 14.58 10.91 10.69 7.07 14.83 6.69 2.76 4.26 10.72 3.16 7.64 7.32 5.12 5.02 0.82 10.63 
1 1 1 1 1 1 1 1 1 1 1 1 1 1 1 1 1 1 1 1 1 1 1 1 1 1 1 1 1 1 1 1 1 1 1 1 1 1 1 1 
1 1 1 1 1 1 1 1 1 1 1 1 1 1 1 1 1 1 1 1 1 1 1 1 1 1 1 1 1 1 1 1 1 1 1 1 1 1 1 1 
1 1 1 1 1 1 1 1 1 1 1 1 1 1 1 1 1 1 1 1 1 1 1 1 1 1 1 1 1 1 1 1 1 1 1 1 1 1 1 1 
0.01 0.01 0.01 0.01 0.01 0.01 0.01 0.01 0.01 0.01 0.01 0.01 0.01 0.01 0.01 0.01 0.01 0.01 0.01 0.01 0.01 0.01 0.01 0.01 0.01 0.01 0.01 0.01 0.01 0.01 0.01 0.01 0.01 0.01 0.01 0.01 0.01 0.01 0.01 0.01 
0.02 0.02 0.02 0.02 0.02 0.02 0.02 0.02 0.02 0.02 0.02 0.02 0.02 0.02 0.02 0.02 0.02 0.02 0.02 0.02 0.02 0.02 0.02 0.02 0.02 0.02 0.02 0.02 0.02 0.02 0.02 0.02 0.02 0.02 0.02 0.02 0.02 0.02 0.02 0.02 
1 1 1 1 1 1 1 1 1 1 1 1 1 1 1 1 1 1 1 1 1 1 1 1 1 1 1 1 1 1 1 1 1 1 1 1 1 1 1 1 
